g3 0 1 0	# problem d5n8R4R6d001d05
 8 9 1 0 4	# vars, constraints, objectives, ranges, eqns
 3 1	# nonlinear constraints, objectives
 0 0	# network constraints: nonlinear, linear
 8 8 8	# nonlinear vars in constraints, objectives, both
 0 0 0 1	# linear network variables; functions; arith, flags
 0 0 0 0 0	# discrete variables: binary, integer, nonlinear (b,c,o)
 56 8	# nonzeros in Jacobian, gradients
 0 0	# max name lengths: constraints, variables
 0 0 0 0 0	# common exprs: b,c,o,c1,o1
b
0 0.05 2.7
0 0.96 2.7
0 0.15 2.56
0 0.29 2.03
0 0.19 2.42
0 0.45 2.05
0 0.2 2.33
0 0.58 2.19
r
2 62.291
2 35.994
2 317.498
4 33.037
4 14.052
4 23.813
4 24.769
2 45.875
2 62.633
C0
o2
o2
o2
n9.76
v7
v7
v7
C1
o54
3
o2
o2
o2
n3.88
v7
v7
v7
o2
o2
o2
o2
n3.25
v0
v4
v5
v7
o2
o2
o2
o2
n0.23
v3
v3
v7
v7
C2
o54
13
o2
o2
o2
n5.52
v7
v7
v7
o2
o2
o2
o2
n0.48
v0
v4
v5
v7
o2
o2
o2
o2
n9.58
v3
v3
v7
v7
o2
o2
o2
o2
o2
n2.83
v0
v0
v1
v5
v7
o2
o2
o2
o2
o2
n8.47
v1
v1
v1
v3
v5
o2
o2
o2
o2
o2
n7.68
v1
v1
v2
v3
v7
o2
o2
o2
o2
o2
n7.01
v1
v2
v2
v2
v5
o2
o2
o2
o2
o2
n0.89
v2
v2
v3
v5
v5
o2
o2
o2
o2
o2
n0.37
v2
v3
v4
v6
v6
o2
o2
o2
o2
o2
n9
v2
v4
v4
v7
v7
o2
o2
o2
o2
o2
n8.33
v3
v3
v3
v5
v7
o2
o2
o2
o2
o2
n0.41
v3
v3
v5
v6
v7
o16
o2
o2
o2
o2
o2
n9.26
v3
v3
v6
v7
v7
C3
n0
C4
n0
C5
n0
C6
n0
C7
n0
C8
n0
O0 0
o54
13
o2
o2
o2
n3.42
v7
v7
v7
o2
o2
o2
o2
n8.57
v0
v4
v5
v7
o2
o2
o2
o2
n4.04
v3
v3
v7
v7
o2
o2
o2
o2
o2
n2.64
v0
v0
v1
v5
v7
o2
o2
o2
o2
o2
n9.23
v1
v1
v1
v3
v5
o2
o2
o2
o2
o2
n6.95
v1
v1
v2
v3
v7
o2
o2
o2
o2
o2
n0.23
v1
v2
v2
v2
v5
o2
o2
o2
o2
o2
n7.55
v2
v2
v3
v5
v5
o2
o2
o2
o2
o2
n4.54
v2
v3
v4
v6
v6
o2
o2
o2
o2
o2
n8.63
v2
v4
v4
v7
v7
o2
o2
o2
o2
o2
n0.87
v3
v3
v3
v5
v7
o2
o2
o2
o2
o2
n9.98
v3
v3
v5
v6
v7
o2
o2
o2
o2
o2
n9.68
v3
v3
v6
v7
v7
k7
8
14
21
29
36
43
51
J0 8
0 0.07
1 2.81
2 -8.44
3 9.9
4 5.78
5 6.09
6 6.18
7 5.85
J1 8
0 0.78
1 5.02
2 3.01
3 1.41
4 0.78
5 2.45
6 -9.21
7 4.76
J2 8
0 7.83
1 6.44
2 1.98
3 2.65
4 8.32
5 4.39
6 1.81
7 2.94
J3 4
0 7.05
2 6.89
4 7.05
6 3.8
J4 4
0 7.17
3 0.6
5 0.48
6 2.29
J5 4
0 2.95
1 4.54
3 0.24
6 8.83
J6 4
2 1.37
3 5.75
4 3.5
5 9.34
J7 8
0 0.11
1 0.94
2 5.92
3 4.92
4 4.55
5 5.92
6 7.63
7 5.26
J8 8
0 5.99
1 9.5
2 1.15
3 6.66
4 4.63
5 2.4
6 5.29
7 8.66
G0 8
0 7.77
1 0.89
2 7.17
3 2
4 2.89
5 0.4
6 8.76
7 2.07
